w = 27;
n = 21;
measures = [|3, 3,
|3, 4,
|3, 5,
|3, 6,
|3, 7,
|3, 8,
|3, 9,
|3, 10,
|3, 11,
|3, 12,
|3, 19,
|3, 20,
|3, 21,
|4, 3,
|4, 4,
|4, 6,
|4, 7,
|4, 8,
|4, 14,
|4, 19,
|4, 20,
|];
initial_x = [0, 3, 6, 9, 12, 15, 18, 21, 24, 0, 3, 6, 9, 12, 16, 20, 0, 4, 8, 12, 16];
initial_y = [0, 0, 0, 0, 0, 0, 0, 0, 0, 11, 11, 11, 11, 11, 11, 11, 32, 32, 32, 32, 32];